\Generated by Cardinal Operations

Maximize
   7.66 x_1 + 6.19 x_2 + 14.48 x_3 + 6.19 x_4 + 15.32 x_5 + 6.19 x_6 
   + 18.75 x_7 + 6.04 x_8 + 6.19 x_9 + 12.25 x_10 + 6.19 x_11 + 6.19 x_12 
   + 12.4 x_13 + 6.19 x_14 + 11.92 x_15 + 11.12 x_16 + 6.19 x_17 
   + 14.09 x_18 + 6.13 x_19 + 6.19 x_20 + 6.19 x_21 + 6.39 x_22 + 6.19 x_23 
   + 16.35 x_24 + 12.86 x_25 + 12.77 x_26 + 6.19 x_27 + 11.12 x_28 
   + 6.19 x_29 + 20.48 x_30 + 6.19 x_31 + 15.47 x_32 + 7.24 x_33 
   + 15.02 x_34 + 6.19 x_35 + 6.19 x_36 + 10.44 x_37 + 6.19 x_38 
   + 6.13 x_39 + 6.19 x_40 + 6.19 x_41 + 6.19 x_42 + 6.04 x_43 + 6.19 x_44 
   + 6.19 x_45 + 6.19 x_46 + 15.32 x_47 
Subject To
 inventory_constraint: x_1 <= 4400
 x_2 <= 1940
 x_3 <= 730
 x_4 <= 12620
 x_5 <= 380
 x_6 <= 20
 x_7 <= 760
 x_8 <= 20870
 x_9 <= 120
 x_10 <= 280
 x_11 <= 140
 x_12 <= 770
 x_13 <= 1850
 x_14 <= 1770
 x_15 <= 860
 x_16 <= 630
 x_17 <= 1060
 x_18 <= 460
 x_19 <= 4160
 x_20 <= 350
 x_21 <= 1870
 x_22 <= 1690
 x_23 <= 2200
 x_24 <= 140
 x_25 <= 940
 x_26 <= 20
 x_27 <= 4780
 x_28 <= 3160
 x_29 <= 510
 x_30 <= 110
 x_31 <= 190
 x_32 <= 10
 x_33 <= 120
 x_34 <= 190
 x_35 <= 15700
 x_36 <= 10780
 x_37 <= 120
 x_38 <= 71610
 x_39 <= 3240
 x_40 <= 1440
 x_41 <= 1310
 x_42 <= 140
 x_43 <= 1030
 x_44 <= 390
 x_45 <= 46070
 x_46 <= 380
 x_47 <= 30
 demand_constraint: x_1 <= 627
 x_2 <= 292
 x_3 <= 132
 x_4 <= 1778
 x_5 <= 58
 x_6 <= 4
 x_7 <= 120
 x_8 <= 2935
 x_9 <= 21
 x_10 <= 43
 x_11 <= 27
 x_12 <= 120
 x_13 <= 288
 x_14 <= 275
 x_15 <= 139
 x_16 <= 94
 x_17 <= 178
 x_18 <= 78
 x_19 <= 629
 x_20 <= 54
 x_21 <= 280
 x_22 <= 245
 x_23 <= 311
 x_24 <= 22
 x_25 <= 146
 x_26 <= 4
 x_27 <= 722
 x_28 <= 438
 x_29 <= 83
 x_30 <= 20
 x_31 <= 35
 x_32 <= 2
 x_33 <= 22
 x_34 <= 27
 x_35 <= 2200
 x_36 <= 1517
 x_37 <= 18
 x_38 <= 10189
 x_39 <= 521
 x_40 <= 206
 x_41 <= 183
 x_42 <= 27
 x_43 <= 159
 x_44 <= 68
 x_45 <= 6455
 x_46 <= 61
 x_47 <= 5
Generals
 x_1  x_2  x_3  x_4  x_5  x_6  x_7  x_8  x_9  x_10  x_11  x_12  x_13  x_14  
 x_15  x_16  x_17  x_18  x_19  x_20  x_21  x_22  x_23  x_24  x_25  x_26  
 x_27  x_28  x_29  x_30  x_31  x_32  x_33  x_34  x_35  x_36  x_37  x_38  
 x_39  x_40  x_41  x_42  x_43  x_44  x_45  x_46  x_47  
END

